NAME : lin105.tsp
COMMENT : Optimal tour for lin105.tsp
TYPE : TOUR
DIMENSION : 105
Total Length: 15773.23325902784
TOUR_SECTION
1
2
6
7
10
11
15
103
21
22
29
32
31
30
20
23
28
33
36
37
42
41
43
46
52
53
58
57
54
51
47
44
104
40
49
45
48
50
55
56
59
105
62
63
70
69
74
75
81
80
76
73
79
77
72
64
67
68
71
78
82
83
84
85
91
92
96
97
101
102
93
86
89
90
98
99
100
95
94
88
87
66
65
61
60
39
38
34
35
26
25
18
17
16
27
24
19
12
3
8
9
5
4
13
14
-1
EOF
